benchmark/results/graph__10-1000-0.10-02_6/error_log/graph__10-1000-0.10-02_6_Quinton_Benders_sub_ERRORLOG.lp
\ This file has been generated by DOcplex
\ ENCODING=ISO-8859-1
\Problem name: Quinton Benders_dual_sub

Minimize
 obj: 0.000817661488 pi_nr_a0 + 0.001572327044 pi_nr_a1
      + 0.001228501229 pi_nr_a2 + 0.000864304235 pi_nr_a3
      + 0.001592356688 pi_nr_a4 + 0.000948766603 pi_nr_a5
      + 0.001003009027 pi_nr_a6 + 0.001242236025 pi_nr_a7
      + 0.001012145749 pi_nr_a8 + 0.000838926174 pi_nr_a9 + pi_p_a2_a1
      + pi_p_a7_a8 + pi_p_a6_a6 + pi_p_a2_a5 + pi_p_a3_a4
      + 2523 pi_d_a0_a1_proc_0 + 2522 pi_d_a0_a3_proc_0 + pi_d_a3_a0_proc_0
      + pi_d_a5_a0_proc_0 + pi_d_a0_a6_proc_0 + 2 pi_d_a0_a7_proc_0
      - pi_d_a7_a0_proc_0 + 2 pi_d_a0_a8_proc_0 - pi_d_a8_a0_proc_0
      + pi_d_a2_a1_proc_1 + 2522 pi_d_a1_a3_proc_0 + 2523 pi_d_a3_a1_proc_0
      + pi_d_a3_a1_proc_1 + pi_d_a1_a4_proc_1 + 2522 pi_d_a1_a5_proc_0
      + pi_d_a5_a1_proc_0 + 2523 pi_d_a1_a6_proc_0 + 2523 pi_d_a1_a6_proc_1
      + 2523 pi_d_a1_a7_proc_0 + 2523 pi_d_a1_a7_proc_1 + 2 pi_d_a1_a8_proc_0
      + 2 pi_d_a1_a8_proc_1 + 2521 pi_d_a8_a1_proc_0 + 2521 pi_d_a8_a1_proc_1
      + pi_d_a1_a9_proc_1 + pi_d_a2_a3_proc_1 + 2 pi_d_a2_a4_proc_1
      - pi_d_a4_a2_proc_1 + 2524 pi_d_a2_a6_proc_1 - pi_d_a6_a2_proc_1
      + 2524 pi_d_a2_a7_proc_1 - pi_d_a7_a2_proc_1 + 3 pi_d_a2_a8_proc_1
      + 2520 pi_d_a8_a2_proc_1 + 2 pi_d_a2_a9_proc_1 - pi_d_a9_a2_proc_1
      + pi_d_a3_a4_proc_1 + 2523 pi_d_a3_a5_proc_0 + 2 pi_d_a3_a6_proc_0
      + 2 pi_d_a3_a6_proc_1 + 2521 pi_d_a6_a3_proc_0 + 2521 pi_d_a6_a3_proc_1
      + 2524 pi_d_a3_a7_proc_0 + 2524 pi_d_a3_a7_proc_1 - pi_d_a7_a3_proc_0
      - pi_d_a7_a3_proc_1 + 2 pi_d_a3_a8_proc_0 + 2 pi_d_a3_a8_proc_1
      + 2521 pi_d_a8_a3_proc_0 + 2521 pi_d_a8_a3_proc_1 + 2 pi_d_a3_a9_proc_1
      - pi_d_a9_a3_proc_1 + 656 pi_d_a4_a6_proc_1 + 1867 pi_d_a6_a4_proc_1
      + 2523 pi_d_a4_a7_proc_1 + pi_d_a4_a8_proc_1 + 2522 pi_d_a8_a4_proc_1
      + pi_d_a4_a9_proc_1 + pi_d_a5_a6_proc_0 + 2 pi_d_a5_a7_proc_0
      - pi_d_a7_a5_proc_0 + 2 pi_d_a5_a8_proc_0 - pi_d_a8_a5_proc_0
      + pi_d_a6_a7_proc_0 + 2523 pi_d_a6_a7_proc_1 + 2522 pi_d_a7_a6_proc_1
      + pi_d_a6_a8_proc_0 + 2523 pi_d_a6_a8_proc_1 + 2522 pi_d_a8_a6_proc_1
      + 2523 pi_d_a6_a9_proc_1 + pi_d_a7_a8_proc_0 + 2523 pi_d_a7_a8_proc_1
      + 2522 pi_d_a8_a7_proc_1 + 2523 pi_d_a7_a9_proc_1 + 2522 pi_d_a8_a9_proc_1
      + pi_d_a9_a8_proc_1 + pi_y2_a0_proc_0 + pi_y2_a1_proc_1 + pi_y2_a2_proc_1
      + pi_y2_a3_proc_1 + pi_y2_a4_proc_1 + pi_y2_a5_proc_0 + pi_y2_a6_proc_0
      + pi_y2_a7_proc_0 + pi_y2_a8_proc_0 + pi_y2_a9_proc_1
Subject To
 c1: pi_nr_a0 + pi_nr_a1 + pi_nr_a2 + pi_nr_a3 + pi_nr_a4 + pi_nr_a5 + pi_nr_a6
     + pi_nr_a7 + pi_nr_a8 + pi_nr_a9 - pi_y1_a0 - pi_y1_a1 - pi_y1_a2
     - pi_y1_a3 - pi_y1_a4 - pi_y1_a5 - pi_y1_a6 - pi_y1_a7 - pi_y1_a8
     - pi_y1_a9 >= 1
 c2: - pi_p_a1_a0 + pi_p_a0_a3 + pi_d_a0_a1_proc_0 - pi_d_a1_a0_proc_0
     + pi_d_a0_a3_proc_0 - pi_d_a3_a0_proc_0 + pi_d_a0_a5_proc_0
     - pi_d_a5_a0_proc_0 + pi_d_a0_a6_proc_0 - pi_d_a6_a0_proc_0
     + pi_d_a0_a7_proc_0 - pi_d_a7_a0_proc_0 + pi_d_a0_a8_proc_0
     - pi_d_a8_a0_proc_0 >= 0
 c3: 1223 pi_p_a0_a3 + 1223 pi_d_a0_a1_proc_0 + 1223 pi_d_a0_a3_proc_0
     + 1223 pi_d_a0_a5_proc_0 + 1223 pi_d_a0_a6_proc_0 + 1223 pi_d_a0_a7_proc_0
     + 1223 pi_d_a0_a8_proc_0 + pi_y1_a0 + pi_y2_a0_proc_0 >= 0
 c4: pi_p_a1_a0 - pi_p_a2_a1 - pi_p_a4_a1 - pi_d_a0_a1_proc_0
     + pi_d_a1_a0_proc_0 + pi_d_a1_a2_proc_1 - pi_d_a2_a1_proc_1
     + pi_d_a1_a3_proc_0 + pi_d_a1_a3_proc_1 - pi_d_a3_a1_proc_0
     - pi_d_a3_a1_proc_1 + pi_d_a1_a4_proc_1 - pi_d_a4_a1_proc_1
     + pi_d_a1_a5_proc_0 - pi_d_a5_a1_proc_0 + pi_d_a1_a6_proc_0
     + pi_d_a1_a6_proc_1 - pi_d_a6_a1_proc_0 - pi_d_a6_a1_proc_1
     + pi_d_a1_a7_proc_0 + pi_d_a1_a7_proc_1 - pi_d_a7_a1_proc_0
     - pi_d_a7_a1_proc_1 + pi_d_a1_a8_proc_0 + pi_d_a1_a8_proc_1
     - pi_d_a8_a1_proc_0 - pi_d_a8_a1_proc_1 + pi_d_a1_a9_proc_1
     - pi_d_a9_a1_proc_1 >= 0
 c5: 1174 pi_p_a1_a0 + 1174 pi_d_a1_a0_proc_0 + 1174 pi_d_a1_a3_proc_0
     + 1174 pi_d_a1_a5_proc_0 + 1174 pi_d_a1_a6_proc_0 + 1174 pi_d_a1_a7_proc_0
     + 1174 pi_d_a1_a8_proc_0 + pi_y1_a1 + pi_y2_a1_proc_0 >= 0
 c6: 636 pi_p_a1_a0 + 636 pi_d_a1_a2_proc_1 + 636 pi_d_a1_a3_proc_1
     + 636 pi_d_a1_a4_proc_1 + 636 pi_d_a1_a6_proc_1 + 636 pi_d_a1_a7_proc_1
     + 636 pi_d_a1_a8_proc_1 + 636 pi_d_a1_a9_proc_1 + pi_y1_a1
     + pi_y2_a1_proc_1 >= 0
 c7: pi_p_a2_a1 - pi_p_a5_a2 - pi_p_a3_a2 + pi_p_a2_a5 - pi_d_a1_a2_proc_1
     + pi_d_a2_a1_proc_1 + pi_d_a2_a3_proc_1 - pi_d_a3_a2_proc_1
     + pi_d_a2_a4_proc_1 - pi_d_a4_a2_proc_1 + pi_d_a2_a6_proc_1
     - pi_d_a6_a2_proc_1 + pi_d_a2_a7_proc_1 - pi_d_a7_a2_proc_1
     + pi_d_a2_a8_proc_1 - pi_d_a8_a2_proc_1 + pi_d_a2_a9_proc_1
     - pi_d_a9_a2_proc_1 >= 0
 c8: 814 pi_p_a2_a1 + 814 pi_p_a2_a5 + 814 pi_d_a2_a1_proc_1
     + 814 pi_d_a2_a3_proc_1 + 814 pi_d_a2_a4_proc_1 + 814 pi_d_a2_a6_proc_1
     + 814 pi_d_a2_a7_proc_1 + 814 pi_d_a2_a8_proc_1 + 814 pi_d_a2_a9_proc_1
     + pi_y1_a2 + pi_y2_a2_proc_1 >= 0
 c9: - pi_p_a0_a3 + pi_p_a3_a2 + pi_p_a3_a4 - pi_d_a0_a3_proc_0
     + pi_d_a3_a0_proc_0 - pi_d_a1_a3_proc_0 - pi_d_a1_a3_proc_1
     + pi_d_a3_a1_proc_0 + pi_d_a3_a1_proc_1 - pi_d_a2_a3_proc_1
     + pi_d_a3_a2_proc_1 + pi_d_a3_a4_proc_1 - pi_d_a4_a3_proc_1
     + pi_d_a3_a5_proc_0 - pi_d_a5_a3_proc_0 + pi_d_a3_a6_proc_0
     + pi_d_a3_a6_proc_1 - pi_d_a6_a3_proc_0 - pi_d_a6_a3_proc_1
     + pi_d_a3_a7_proc_0 + pi_d_a3_a7_proc_1 - pi_d_a7_a3_proc_0
     - pi_d_a7_a3_proc_1 + pi_d_a3_a8_proc_0 + pi_d_a3_a8_proc_1
     - pi_d_a8_a3_proc_0 - pi_d_a8_a3_proc_1 + pi_d_a3_a9_proc_1
     - pi_d_a9_a3_proc_1 >= 0
 c10: 773 pi_p_a3_a2 + 773 pi_p_a3_a4 + 773 pi_d_a3_a0_proc_0
      + 773 pi_d_a3_a1_proc_0 + 773 pi_d_a3_a5_proc_0 + 773 pi_d_a3_a6_proc_0
      + 773 pi_d_a3_a7_proc_0 + 773 pi_d_a3_a8_proc_0 + pi_y1_a3
      + pi_y2_a3_proc_0 >= 0
 c11: 1157 pi_p_a3_a2 + 1157 pi_p_a3_a4 + 1157 pi_d_a3_a1_proc_1
      + 1157 pi_d_a3_a2_proc_1 + 1157 pi_d_a3_a4_proc_1 + 1157 pi_d_a3_a6_proc_1
      + 1157 pi_d_a3_a7_proc_1 + 1157 pi_d_a3_a8_proc_1 + 1157 pi_d_a3_a9_proc_1
      + pi_y1_a3 + pi_y2_a3_proc_1 >= 0
 c12: pi_p_a4_a1 - pi_p_a6_a4 - pi_p_a9_a4 - pi_p_a3_a4 - pi_d_a1_a4_proc_1
      + pi_d_a4_a1_proc_1 - pi_d_a2_a4_proc_1 + pi_d_a4_a2_proc_1
      - pi_d_a3_a4_proc_1 + pi_d_a4_a3_proc_1 + pi_d_a4_a6_proc_1
      - pi_d_a6_a4_proc_1 + pi_d_a4_a7_proc_1 - pi_d_a7_a4_proc_1
      + pi_d_a4_a8_proc_1 - pi_d_a8_a4_proc_1 + pi_d_a4_a9_proc_1
      - pi_d_a9_a4_proc_1 >= 0
 c13: 628 pi_p_a4_a1 + 628 pi_d_a4_a1_proc_1 + 628 pi_d_a4_a2_proc_1
      + 628 pi_d_a4_a3_proc_1 + 628 pi_d_a4_a6_proc_1 + 628 pi_d_a4_a7_proc_1
      + 628 pi_d_a4_a8_proc_1 + 628 pi_d_a4_a9_proc_1 + pi_y1_a4
      + pi_y2_a4_proc_1 >= 0
 c14: pi_p_a5_a2 - pi_p_a9_a5 - pi_p_a8_a5 - pi_p_a2_a5 - pi_d_a0_a5_proc_0
      + pi_d_a5_a0_proc_0 - pi_d_a1_a5_proc_0 + pi_d_a5_a1_proc_0
      - pi_d_a3_a5_proc_0 + pi_d_a5_a3_proc_0 + pi_d_a5_a6_proc_0
      - pi_d_a6_a5_proc_0 + pi_d_a5_a7_proc_0 - pi_d_a7_a5_proc_0
      + pi_d_a5_a8_proc_0 - pi_d_a8_a5_proc_0 >= 0
 c15: 1054 pi_p_a5_a2 + 1054 pi_d_a5_a0_proc_0 + 1054 pi_d_a5_a1_proc_0
      + 1054 pi_d_a5_a3_proc_0 + 1054 pi_d_a5_a6_proc_0 + 1054 pi_d_a5_a7_proc_0
      + 1054 pi_d_a5_a8_proc_0 + pi_y1_a5 + pi_y2_a5_proc_0 >= 0
 c16: pi_p_a6_a4 - pi_p_a7_a6 - pi_p_a8_a6 - pi_d_a0_a6_proc_0
      + pi_d_a6_a0_proc_0 - pi_d_a1_a6_proc_0 - pi_d_a1_a6_proc_1
      + pi_d_a6_a1_proc_0 + pi_d_a6_a1_proc_1 - pi_d_a2_a6_proc_1
      + pi_d_a6_a2_proc_1 - pi_d_a3_a6_proc_0 - pi_d_a3_a6_proc_1
      + pi_d_a6_a3_proc_0 + pi_d_a6_a3_proc_1 - pi_d_a4_a6_proc_1
      + pi_d_a6_a4_proc_1 - pi_d_a5_a6_proc_0 + pi_d_a6_a5_proc_0
      + pi_d_a6_a7_proc_0 + pi_d_a6_a7_proc_1 - pi_d_a7_a6_proc_0
      - pi_d_a7_a6_proc_1 + pi_d_a6_a8_proc_0 + pi_d_a6_a8_proc_1
      - pi_d_a8_a6_proc_0 - pi_d_a8_a6_proc_1 + pi_d_a6_a9_proc_1
      - pi_d_a9_a6_proc_1 >= 0
 c17: 997 pi_p_a6_a4 + 997 pi_p_a6_a6 + 997 pi_d_a6_a0_proc_0
      + 997 pi_d_a6_a1_proc_0 + 997 pi_d_a6_a3_proc_0 + 997 pi_d_a6_a5_proc_0
      + 997 pi_d_a6_a7_proc_0 + 997 pi_d_a6_a8_proc_0 + pi_y1_a6
      + pi_y2_a6_proc_0 >= 0
 c18: 505 pi_p_a6_a4 + 505 pi_p_a6_a6 + 505 pi_d_a6_a1_proc_1
      + 505 pi_d_a6_a2_proc_1 + 505 pi_d_a6_a3_proc_1 + 505 pi_d_a6_a4_proc_1
      + 505 pi_d_a6_a7_proc_1 + 505 pi_d_a6_a8_proc_1 + 505 pi_d_a6_a9_proc_1
      + pi_y1_a6 + pi_y2_a6_proc_1 >= 0
 c19: pi_p_a7_a6 + pi_p_a7_a8 - pi_p_a9_a7 - pi_d_a0_a7_proc_0
      + pi_d_a7_a0_proc_0 - pi_d_a1_a7_proc_0 - pi_d_a1_a7_proc_1
      + pi_d_a7_a1_proc_0 + pi_d_a7_a1_proc_1 - pi_d_a2_a7_proc_1
      + pi_d_a7_a2_proc_1 - pi_d_a3_a7_proc_0 - pi_d_a3_a7_proc_1
      + pi_d_a7_a3_proc_0 + pi_d_a7_a3_proc_1 - pi_d_a4_a7_proc_1
      + pi_d_a7_a4_proc_1 - pi_d_a5_a7_proc_0 + pi_d_a7_a5_proc_0
      - pi_d_a6_a7_proc_0 - pi_d_a6_a7_proc_1 + pi_d_a7_a6_proc_0
      + pi_d_a7_a6_proc_1 + pi_d_a7_a8_proc_0 + pi_d_a7_a8_proc_1
      - pi_d_a8_a7_proc_0 - pi_d_a8_a7_proc_1 + pi_d_a7_a9_proc_1
      - pi_d_a9_a7_proc_1 >= 0
 c20: 805 pi_p_a7_a6 + 805 pi_p_a7_a8 + 805 pi_d_a7_a0_proc_0
      + 805 pi_d_a7_a1_proc_0 + 805 pi_d_a7_a3_proc_0 + 805 pi_d_a7_a5_proc_0
      + 805 pi_d_a7_a6_proc_0 + 805 pi_d_a7_a8_proc_0 + pi_y1_a7
      + pi_y2_a7_proc_0 >= 0
 c21: 1261 pi_p_a7_a6 + 1261 pi_p_a7_a8 + 1261 pi_d_a7_a1_proc_1
      + 1261 pi_d_a7_a2_proc_1 + 1261 pi_d_a7_a3_proc_1 + 1261 pi_d_a7_a4_proc_1
      + 1261 pi_d_a7_a6_proc_1 + 1261 pi_d_a7_a8_proc_1 + 1261 pi_d_a7_a9_proc_1
      + pi_y1_a7 + pi_y2_a7_proc_1 >= 0
 c22: - pi_p_a7_a8 + pi_p_a8_a9 + pi_p_a8_a5 + pi_p_a8_a6 - pi_d_a0_a8_proc_0
      + pi_d_a8_a0_proc_0 - pi_d_a1_a8_proc_0 - pi_d_a1_a8_proc_1
      + pi_d_a8_a1_proc_0 + pi_d_a8_a1_proc_1 - pi_d_a2_a8_proc_1
      + pi_d_a8_a2_proc_1 - pi_d_a3_a8_proc_0 - pi_d_a3_a8_proc_1
      + pi_d_a8_a3_proc_0 + pi_d_a8_a3_proc_1 - pi_d_a4_a8_proc_1
      + pi_d_a8_a4_proc_1 - pi_d_a5_a8_proc_0 + pi_d_a8_a5_proc_0
      - pi_d_a6_a8_proc_0 - pi_d_a6_a8_proc_1 + pi_d_a8_a6_proc_0
      + pi_d_a8_a6_proc_1 - pi_d_a7_a8_proc_0 - pi_d_a7_a8_proc_1
      + pi_d_a8_a7_proc_0 + pi_d_a8_a7_proc_1 + pi_d_a8_a9_proc_1
      - pi_d_a9_a8_proc_1 >= 0
 c23: 988 pi_p_a8_a9 + 988 pi_p_a8_a5 + 988 pi_p_a8_a6 + 988 pi_d_a8_a0_proc_0
      + 988 pi_d_a8_a1_proc_0 + 988 pi_d_a8_a3_proc_0 + 988 pi_d_a8_a5_proc_0
      + 988 pi_d_a8_a6_proc_0 + 988 pi_d_a8_a7_proc_0 + pi_y1_a8
      + pi_y2_a8_proc_0 >= 0
 c24: 711 pi_p_a8_a9 + 711 pi_p_a8_a5 + 711 pi_p_a8_a6 + 711 pi_d_a8_a1_proc_1
      + 711 pi_d_a8_a2_proc_1 + 711 pi_d_a8_a3_proc_1 + 711 pi_d_a8_a4_proc_1
      + 711 pi_d_a8_a6_proc_1 + 711 pi_d_a8_a7_proc_1 + 711 pi_d_a8_a9_proc_1
      + pi_y1_a8 + pi_y2_a8_proc_1 >= 0
 c25: - pi_p_a8_a9 + pi_p_a9_a7 + pi_p_a9_a5 + pi_p_a9_a4 - pi_d_a1_a9_proc_1
      + pi_d_a9_a1_proc_1 - pi_d_a2_a9_proc_1 + pi_d_a9_a2_proc_1
      - pi_d_a3_a9_proc_1 + pi_d_a9_a3_proc_1 - pi_d_a4_a9_proc_1
      + pi_d_a9_a4_proc_1 - pi_d_a6_a9_proc_1 + pi_d_a9_a6_proc_1
      - pi_d_a7_a9_proc_1 + pi_d_a9_a7_proc_1 - pi_d_a8_a9_proc_1
      + pi_d_a9_a8_proc_1 >= 0
 c26: 1192 pi_p_a9_a7 + 1192 pi_p_a9_a5 + 1192 pi_p_a9_a4
      + 1192 pi_d_a9_a1_proc_1 + 1192 pi_d_a9_a2_proc_1 + 1192 pi_d_a9_a3_proc_1
      + 1192 pi_d_a9_a4_proc_1 + 1192 pi_d_a9_a6_proc_1 + 1192 pi_d_a9_a7_proc_1
      + 1192 pi_d_a9_a8_proc_1 + pi_y1_a9 + pi_y2_a9_proc_1 >= 0

Bounds
       pi_y1_a0 Free
       pi_y1_a1 Free
       pi_y1_a2 Free
       pi_y1_a3 Free
       pi_y1_a4 Free
       pi_y1_a5 Free
       pi_y1_a6 Free
       pi_y1_a7 Free
       pi_y1_a8 Free
       pi_y1_a9 Free
End
