benchmark/results/graph__10-1000-0.10-02_6/error_log/graph__10-1000-0.10-02_6_Quinton_Benders_sub_ERRORLOG.txt
solution for: Quinton Benders_dual_sub
objective: 0.000133174
status: OPTIMAL_SOLUTION(2)
pi_p_a3_a4=0.000
pi_d_a0_a5_proc_0=0.000
pi_d_a7_a0_proc_0=0.000
pi_d_a2_a1_proc_1=0.000
pi_d_a1_a9_proc_1=0.000
pi_d_a4_a2_proc_1=0.000
pi_d_a5_a3_proc_0=0.000
pi_d_a9_a7_proc_1=0.000
pi_y1_a0=-0.163
pi_y1_a1=-0.085
pi_y1_a2=-0.108
pi_y1_a3=-0.154
pi_y1_a4=-0.084
pi_y1_a5=-0.140
pi_y1_a7=-0.107
pi_y1_a9=-0.159
pi_y2_a1_proc_0=0.085
pi_y2_a3_proc_0=0.051
pi_y2_a7_proc_1=0.107
